
Gurobi 10.0.1 (linux64) logging started Sun Nov 26 15:59:44 2023

Set parameter LogFile to value "ArtificialInstance/ExperimentV2/S4T5K1/BaDo/gurobi91.txt"
Gurobi Optimizer version 10.0.1 build v10.0.1rc0 (linux64)

CPU model: AMD EPYC 7H12 64-Core Processor, instruction set [SSE2|AVX|AVX2]
Thread count: 128 physical cores, 128 logical processors, using up to 32 threads

Academic license 656792 - for non-commercial use only - registered to b.___@student.vu.nl
Optimize a model with 420 rows, 720 columns and 2240 nonzeros
Model fingerprint: 0xaf3875dd
Variable types: 0 continuous, 720 integer (720 binary)
Coefficient statistics:
  Matrix range     [1e+00, 1e+00]
  Objective range  [2e+00, 2e+01]
  Bounds range     [1e+00, 1e+00]
  RHS range        [1e+00, 1e+00]
Found heuristic solution: objective 247.3471082
Presolve time: 0.00s
Presolved: 420 rows, 720 columns, 2240 nonzeros
Variable types: 0 continuous, 720 integer (720 binary)

Root relaxation: objective 2.299633e+01, 252 iterations, 0.00 seconds (0.00 work units)

    Nodes    |    Current Node    |     Objective Bounds      |     Work
 Expl Unexpl |  Obj  Depth IntInf | Incumbent    BestBd   Gap | It/Node Time

     0     0   22.99633    0   40  247.34711   22.99633  90.7%     -    0s
H    0     0                      64.1438385   22.99633  64.1%     -    0s
H    0     0                      28.8473300   24.92438  13.6%     -    0s
     0     0   24.92438    0   42   28.84733   24.92438  13.6%     -    0s
     0     0   25.82359    0   41   28.84733   25.82359  10.5%     -    0s
     0     0   28.07507    0   38   28.84733   28.07507  2.68%     -    0s
     0     0 infeasible    0        28.84733   28.84733  0.00%     -    0s

Explored 1 nodes (513 simplex iterations) in 0.08 seconds (0.01 work units)
Thread count was 32 (of 128 available processors)

Solution count 3: 28.8473 64.1438 247.347 

Optimal solution found (tolerance 1.00e-04)
Best objective 2.884733001275e+01, best bound 2.884733001275e+01, gap 0.0000%
